(set-logic ALL)
(set-option :produce-models true)
(declare-sort BoundSet 0)
(declare-sort UnboundSet 0)
(set-option :finite-model-find true)
(declare-fun IsSymbolic (BoundSet) Bool)
(declare-fun IsClimatePolicy (BoundSet) Bool)
(declare-fun IsEverybody (BoundSet) Bool)
(declare-fun IsPoorer (BoundSet) Bool)
(declare-fun IsSuicidal (BoundSet) Bool)
(assert (not (=> (exists ((c BoundSet)) (exists ((a BoundSet)) (exists ((b BoundSet)) (exists ((d BoundSet)) (and (IsSymbolic b) (and (and (IsClimatePolicy a) (IsEverybody d)) (IsPoorer c))))))) (exists ((e BoundSet)) (exists ((b BoundSet)) (and (IsSymbolic b) (IsSuicidal e)))))))
(check-sat)
(get-model)